(set-info :source |printed by MathSAT|)
(declare-fun |.x{1948}| () Int)
(declare-fun |.x{2022}| () Int)
(declare-fun |.x{1949}| () (Array Int Int))
(declare-fun |.x{2023}| () (Array Int Int))
(declare-fun |.x{1950}| () (Array Int Int))
(declare-fun |.x{2024}| () (Array Int Int))
(declare-fun |.x{1951}| () (Array Int (Array Int Int)))
(declare-fun |.x{2025}| () (Array Int (Array Int Int)))
(declare-fun |.x{1952}| () Int)
(declare-fun |.x{2026}| () Int)
(declare-fun |.x{1953}| () Int)
(declare-fun |.x{2027}| () Int)
(declare-fun |.x{1954}| () (Array Int Int))
(declare-fun |.x{2028}| () (Array Int Int))
(declare-fun |.x{1955}| () (Array Int Int))
(declare-fun |.x{2029}| () (Array Int Int))
(declare-fun |.x{1956}| () Int)
(declare-fun |.x{2030}| () Int)
(declare-fun |.x{1957}| () Int)
(declare-fun |.x{2031}| () Int)
(declare-fun |.x{1958}| () Int)
(declare-fun |.x{2032}| () Int)
(declare-fun |.x{1959}| () Int)
(declare-fun |.x{2033}| () Int)
(declare-fun |.x{1960}| () Int)
(declare-fun |.x{2034}| () Int)
(declare-fun |.x{1961}| () Int)
(declare-fun |.x{2035}| () Int)
(declare-fun |.x{1962}| () Int)
(declare-fun |.x{2036}| () Int)
(declare-fun |.x{1963}| () Int)
(declare-fun |.x{2037}| () Int)
(declare-fun |.x{1964}| () Int)
(declare-fun |.x{2038}| () Int)
(declare-fun |.x{1965}| () Int)
(declare-fun |.x{2039}| () Int)
(declare-fun |.x{1966}| () Int)
(declare-fun |.x{2040}| () Int)
(declare-fun |.x{1967}| () Int)
(declare-fun |.x{2041}| () Int)
(declare-fun |.x{1968}| () Int)
(declare-fun |.x{2042}| () Int)
(declare-fun |.x{1969}| () Int)
(declare-fun |.x{2043}| () Int)
(declare-fun |.x{1970}| () Int)
(declare-fun |.x{2044}| () Int)
(declare-fun |.x{1971}| () Int)
(declare-fun |.x{2045}| () Int)
(declare-fun |.x{1972}| () Int)
(declare-fun |.x{2046}| () Int)
(declare-fun |.x{1973}| () Int)
(declare-fun |.x{2047}| () Int)
(declare-fun |.x{1974}| () Int)
(declare-fun |.x{2048}| () Int)
(declare-fun |.x{1975}| () Int)
(declare-fun |.x{2049}| () Int)
(declare-fun |.x{1976}| () Int)
(declare-fun |.x{2050}| () Int)
(declare-fun |.x{1977}| () Int)
(declare-fun |.x{2051}| () Int)
(declare-fun |.x{1978}| () Int)
(declare-fun |.x{2052}| () Int)
(declare-fun |.x{1979}| () Int)
(declare-fun |.x{2053}| () Int)
(declare-fun |.x{1980}| () Int)
(declare-fun |.x{2054}| () Int)
(declare-fun |.x{1981}| () Int)
(declare-fun |.x{2055}| () Int)
(declare-fun |.x{1982}| () Int)
(declare-fun |.x{2056}| () Int)
(declare-fun |.x{1983}| () Int)
(declare-fun |.x{2057}| () Int)
(declare-fun |.x{2021}| () Bool)
(declare-fun |.x{1984}| () Bool)
(declare-fun |.loc{5}| () Bool)
(declare-fun |.loc{9}| () Bool)
(declare-fun |.loc{6}| () Bool)
(declare-fun |.loc{10}| () Bool)
(declare-fun |.loc{7}| () Bool)
(declare-fun |.loc{11}| () Bool)
(declare-fun |.loc{8}| () Bool)
(declare-fun |.loc{12}| () Bool)
(declare-fun |.x{147}| () (Array Int Int))
(define-fun .def_84 () Bool (! |.loc{6}| :next |.loc{10}|))
(define-fun .def_170 () Bool (not .def_84))
(define-fun .def_82 () Bool (! |.loc{5}| :next |.loc{9}|))
(define-fun .def_664 () Bool (and .def_82 .def_170))
(define-fun .def_86 () Bool (! |.loc{7}| :next |.loc{11}|))
(define-fun .def_91 () Bool (not .def_86))
(define-fun .def_665 () Bool (and .def_91 .def_664))
(define-fun .def_88 () Bool (! |.loc{8}| :next |.loc{12}|))
(define-fun .def_90 () Bool (not .def_88))
(define-fun .def_666 () Bool (and .def_90 .def_665))
(define-fun .def_18 () Int (! |.x{1953}| :next |.x{2027}|))
(define-fun .def_16 () Int (! |.x{1952}| :next |.x{2026}|))
(define-fun .def_659 () Bool (= .def_16 .def_18))
(define-fun .def_26 () Int (! |.x{1957}| :next |.x{2031}|))
(define-fun .def_24 () Int (! |.x{1956}| :next |.x{2030}|))
(define-fun .def_658 () Bool (= .def_24 .def_26))
(define-fun .def_660 () Bool (and .def_658 .def_659))
(define-fun .def_22 () (Array Int Int) (! |.x{1955}| :next |.x{2029}|))
(define-fun .def_20 () (Array Int Int) (! |.x{1954}| :next |.x{2028}|))
(define-fun .def_657 () Bool (= .def_20 .def_22))
(define-fun .def_661 () Bool (and .def_657 .def_660))
(define-fun .def_80 () Bool (! |.x{2021}| :next |.x{1984}|))
(define-fun .def_656 () Bool (not .def_80))
(define-fun .def_662 () Bool (and .def_656 .def_661))
(define-fun .def_12 () (Array Int Int) (! |.x{1950}| :next |.x{2024}|))
(define-fun .def_10 () (Array Int Int) (! |.x{1949}| :next |.x{2023}|))
(define-fun .def_655 () Bool (= .def_10 .def_12))
(define-fun .def_663 () Bool (and .def_655 .def_662))
(define-fun .def_667 () Bool (! (and .def_663 .def_666) :init true))
(define-fun .def_8 () Int (! |.x{1948}| :next |.x{2022}|))
(define-fun .def_652 () Bool (= .def_8 |.x{2022}|))
(define-fun .def_650 () Bool (= .def_26 |.x{2031}|))
(define-fun .def_648 () Bool (= .def_22 |.x{2029}|))
(define-fun .def_646 () Bool (= .def_18 |.x{2027}|))
(define-fun .def_644 () Bool (= .def_12 |.x{2024}|))
(define-fun .def_14 () (Array Int (Array Int Int)) (! |.x{1951}| :next |.x{2025}|))
(define-fun .def_643 () Bool (= .def_14 |.x{2025}|))
(define-fun .def_645 () Bool (and .def_643 .def_644))
(define-fun .def_647 () Bool (and .def_645 .def_646))
(define-fun .def_649 () Bool (and .def_647 .def_648))
(define-fun .def_651 () Bool (and .def_649 .def_650))
(define-fun .def_653 () Bool (and .def_651 .def_652))
(define-fun .def_50 () Int (! |.x{1969}| :next |.x{2043}|))
(define-fun .def_638 () Bool (= .def_50 |.x{2043}|))
(define-fun .def_62 () Int (! |.x{1975}| :next |.x{2049}|))
(define-fun .def_195 () Bool (= .def_62 |.x{2049}|))
(define-fun .def_60 () Int (! |.x{1974}| :next |.x{2048}|))
(define-fun .def_193 () Bool (= .def_60 |.x{2048}|))
(define-fun .def_539 () Bool (and .def_193 .def_195))
(define-fun .def_66 () Int (! |.x{1977}| :next |.x{2051}|))
(define-fun .def_201 () Bool (= .def_66 |.x{2051}|))
(define-fun .def_605 () Bool (and .def_201 .def_539))
(define-fun .def_36 () Int (! |.x{1962}| :next |.x{2036}|))
(define-fun .def_222 () Bool (= .def_36 |.x{2036}|))
(define-fun .def_606 () Bool (and .def_222 .def_605))
(define-fun .def_42 () Int (! |.x{1965}| :next |.x{2039}|))
(define-fun .def_224 () Bool (= .def_42 |.x{2039}|))
(define-fun .def_607 () Bool (and .def_224 .def_606))
(define-fun .def_608 () Bool (and |.x{1984}| .def_607))
(define-fun .def_56 () Int (! |.x{1972}| :next |.x{2046}|))
(define-fun .def_168 () Bool (= .def_56 |.x{2046}|))
(define-fun .def_609 () Bool (and .def_168 .def_608))
(define-fun .def_273 () Bool (not .def_82))
(define-fun .def_610 () Bool (and .def_273 .def_609))
(define-fun .def_611 () Bool (and .def_273 .def_610))
(define-fun .def_236 () Bool (= .def_10 |.x{2023}|))
(define-fun .def_612 () Bool (and .def_236 .def_611))
(define-fun .def_613 () Bool (and .def_236 .def_612))
(define-fun .def_598 () (Array Int Int) (store .def_10 .def_60 0))
(define-fun .def_599 () (Array Int Int) (store .def_598 .def_36 0))
(define-fun .def_600 () Bool (= |.x{2023}| .def_599))
(define-fun .def_597 () Bool (= |.x{2049}| 0))
(define-fun .def_601 () Bool (and .def_597 .def_600))
(define-fun .def_602 () Bool (or .def_80 .def_601))
(define-fun .def_594 () Bool (= |.x{2046}| |.x{2049}|))
(define-fun .def_595 () Bool (or |.x{1984}| .def_594))
(define-fun .def_165 () Bool (= .def_80 |.x{1984}|))
(define-fun .def_596 () Bool (and .def_165 .def_595))
(define-fun .def_603 () Bool (and .def_596 .def_602))
(define-fun .def_604 () Bool (and .def_82 .def_603))
(define-fun .def_614 () Bool (or .def_604 .def_613))
(define-fun .def_591 () Bool (and |.loc{10}| .def_91))
(define-fun .def_592 () Bool (and .def_88 .def_591))
(define-fun .def_593 () Bool (and .def_170 .def_592))
(define-fun .def_615 () Bool (and .def_593 .def_614))
(define-fun .def_30 () Int (! |.x{1959}| :next |.x{2033}|))
(define-fun .def_410 () Bool (= .def_30 0))
(define-fun .def_581 () Bool (or .def_80 .def_410))
(define-fun .def_277 () Bool (not |.loc{10}|))
(define-fun .def_308 () Bool (and .def_193 .def_277))
(define-fun .def_360 () Bool (and .def_195 .def_308))
(define-fun .def_361 () Bool (and .def_90 .def_360))
(define-fun .def_580 () Bool (and .def_201 .def_361))
(define-fun .def_582 () Bool (and .def_580 .def_581))
(define-fun .def_583 () Bool (and .def_222 .def_582))
(define-fun .def_584 () Bool (and .def_224 .def_583))
(define-fun .def_585 () Bool (and .def_165 .def_584))
(define-fun .def_586 () Bool (and .def_82 .def_585))
(define-fun .def_587 () Bool (and .def_84 .def_586))
(define-fun .def_588 () Bool (and .def_168 .def_587))
(define-fun .def_589 () Bool (and .def_86 .def_588))
(define-fun .def_590 () Bool (and .def_236 .def_589))
(define-fun .def_616 () Bool (or .def_590 .def_615))
(define-fun .def_64 () Int (! |.x{1976}| :next |.x{2050}|))
(define-fun .def_94 () Bool (= .def_64 |.x{2050}|))
(define-fun .def_575 () Bool (and |.loc{12}| .def_94))
(define-fun .def_96 () Bool (not |.loc{9}|))
(define-fun .def_576 () Bool (and .def_96 .def_575))
(define-fun .def_98 () Bool (not |.loc{11}|))
(define-fun .def_577 () Bool (and .def_98 .def_576))
(define-fun .def_70 () Int (! |.x{1979}| :next |.x{2053}|))
(define-fun .def_214 () Bool (= .def_70 |.x{2053}|))
(define-fun .def_578 () Bool (and .def_214 .def_577))
(define-fun .def_72 () Int (! |.x{1980}| :next |.x{2054}|))
(define-fun .def_216 () Bool (= .def_72 |.x{2054}|))
(define-fun .def_579 () Bool (and .def_216 .def_578))
(define-fun .def_617 () Bool (and .def_579 .def_616))
(define-fun .def_102 () Bool (= .def_30 |.x{2033}|))
(define-fun .def_618 () Bool (and .def_102 .def_617))
(define-fun .def_54 () Int (! |.x{1971}| :next |.x{2045}|))
(define-fun .def_552 () Int (* 4 .def_54))
(define-fun .def_559 () Int (+ .def_42 .def_552))
(define-fun .def_560 () (Array Int Int) (select .def_14 .def_60))
(define-fun .def_561 () Int (select .def_560 .def_559))
(define-fun .def_562 () Bool (= |.x{2054}| .def_561))
(define-fun .def_558 () Bool (= |.x{2033}| |.x{2050}|))
(define-fun .def_563 () Bool (and .def_558 .def_562))
(define-fun .def_555 () Int (+ .def_552 .def_66))
(define-fun .def_554 () (Array Int Int) (select .def_14 .def_36))
(define-fun .def_556 () Int (select .def_554 .def_555))
(define-fun .def_557 () Bool (= |.x{2053}| .def_556))
(define-fun .def_564 () Bool (and .def_557 .def_563))
(define-fun .def_549 () Bool (= |.x{2053}| |.x{2054}|))
(define-fun .def_550 () Int (ite .def_549 1 0))
(define-fun .def_551 () Bool (= |.x{2050}| .def_550))
(define-fun .def_565 () Bool (and .def_551 .def_564))
(define-fun .def_430 () Bool (<= 100000 .def_54))
(define-fun .def_548 () Bool (not .def_430))
(define-fun .def_566 () Bool (and .def_548 .def_565))
(define-fun .def_567 () Bool (or .def_80 .def_566))
(define-fun .def_540 () Bool (and .def_90 .def_539))
(define-fun .def_541 () Bool (and |.loc{9}| .def_540))
(define-fun .def_542 () Bool (and |.loc{10}| .def_541))
(define-fun .def_543 () Bool (and |.loc{11}| .def_542))
(define-fun .def_544 () Bool (and .def_201 .def_543))
(define-fun .def_100 () Bool (not |.loc{12}|))
(define-fun .def_545 () Bool (and .def_100 .def_544))
(define-fun .def_546 () Bool (and .def_222 .def_545))
(define-fun .def_547 () Bool (and .def_224 .def_546))
(define-fun .def_568 () Bool (and .def_547 .def_567))
(define-fun .def_569 () Bool (and .def_165 .def_568))
(define-fun .def_570 () Bool (and .def_84 .def_569))
(define-fun .def_571 () Bool (and .def_168 .def_570))
(define-fun .def_572 () Bool (and .def_86 .def_571))
(define-fun .def_573 () Bool (and .def_273 .def_572))
(define-fun .def_574 () Bool (and .def_236 .def_573))
(define-fun .def_619 () Bool (or .def_574 .def_618))
(define-fun .def_34 () Int (! |.x{1961}| :next |.x{2035}|))
(define-fun .def_220 () Bool (= .def_34 |.x{2035}|))
(define-fun .def_620 () Bool (and .def_220 .def_619))
(define-fun .def_229 () Bool (= .def_54 |.x{2045}|))
(define-fun .def_621 () Bool (and .def_229 .def_620))
(define-fun .def_531 () Int (* (- 1) |.x{2045}|))
(define-fun .def_532 () Int (+ .def_54 .def_531))
(define-fun .def_533 () Bool (= .def_532 (- 1)))
(define-fun .def_534 () Bool (or |.x{1984}| .def_533))
(define-fun .def_194 () Bool (and .def_91 .def_193))
(define-fun .def_196 () Bool (and .def_194 .def_195))
(define-fun .def_197 () Bool (and .def_90 .def_196))
(define-fun .def_198 () Bool (and |.loc{10}| .def_197))
(define-fun .def_199 () Bool (and .def_94 .def_198))
(define-fun .def_522 () Bool (and |.loc{11}| .def_199))
(define-fun .def_523 () Bool (and .def_96 .def_522))
(define-fun .def_524 () Bool (and .def_201 .def_523))
(define-fun .def_525 () Bool (and .def_100 .def_524))
(define-fun .def_526 () Bool (and .def_102 .def_525))
(define-fun .def_527 () Bool (and .def_222 .def_526))
(define-fun .def_528 () Bool (and .def_224 .def_527))
(define-fun .def_529 () Bool (and .def_165 .def_528))
(define-fun .def_530 () Bool (and .def_168 .def_529))
(define-fun .def_535 () Bool (and .def_530 .def_534))
(define-fun .def_536 () Bool (and .def_273 .def_535))
(define-fun .def_537 () Bool (and .def_170 .def_536))
(define-fun .def_538 () Bool (and .def_236 .def_537))
(define-fun .def_622 () Bool (or .def_538 .def_621))
(define-fun .def_48 () Int (! |.x{1968}| :next |.x{2042}|))
(define-fun .def_226 () Bool (= .def_48 |.x{2042}|))
(define-fun .def_623 () Bool (and .def_226 .def_622))
(define-fun .def_58 () Int (! |.x{1973}| :next |.x{2047}|))
(define-fun .def_234 () Bool (= .def_58 |.x{2047}|))
(define-fun .def_624 () Bool (and .def_234 .def_623))
(define-fun .def_516 () Bool (= |.x{2045}| 0))
(define-fun .def_493 () Bool (= |.x{2042}| 0))
(define-fun .def_517 () Bool (and .def_493 .def_516))
(define-fun .def_518 () Bool (or |.x{1984}| .def_517))
(define-fun .def_68 () Int (! |.x{1978}| :next |.x{2052}|))
(define-fun .def_468 () Bool (= |.x{2042}| .def_68))
(define-fun .def_467 () Bool (<= |.x{2042}| 2147483647))
(define-fun .def_469 () Bool (and .def_467 .def_468))
(define-fun .def_465 () Bool (<= (- 2147483648) |.x{2042}|))
(define-fun .def_470 () Bool (and .def_465 .def_469))
(define-fun .def_471 () Bool (or .def_80 .def_470))
(define-fun .def_497 () Bool (and .def_193 .def_471))
(define-fun .def_498 () Bool (and .def_195 .def_497))
(define-fun .def_499 () Bool (and .def_90 .def_498))
(define-fun .def_500 () Bool (and |.loc{10}| .def_499))
(define-fun .def_501 () Bool (and .def_94 .def_500))
(define-fun .def_502 () Bool (and |.loc{11}| .def_501))
(define-fun .def_503 () Bool (and .def_96 .def_502))
(define-fun .def_504 () Bool (and .def_201 .def_503))
(define-fun .def_505 () Bool (and .def_214 .def_504))
(define-fun .def_506 () Bool (and .def_216 .def_505))
(define-fun .def_507 () Bool (and .def_100 .def_506))
(define-fun .def_508 () Bool (and .def_102 .def_507))
(define-fun .def_509 () Bool (and .def_220 .def_508))
(define-fun .def_510 () Bool (and .def_222 .def_509))
(define-fun .def_511 () Bool (and .def_224 .def_510))
(define-fun .def_512 () Bool (and .def_165 .def_511))
(define-fun .def_513 () Bool (and .def_82 .def_512))
(define-fun .def_514 () Bool (and .def_168 .def_513))
(define-fun .def_515 () Bool (and .def_86 .def_514))
(define-fun .def_519 () Bool (and .def_515 .def_518))
(define-fun .def_520 () Bool (and .def_170 .def_519))
(define-fun .def_521 () Bool (and .def_236 .def_520))
(define-fun .def_625 () Bool (or .def_521 .def_624))
(define-fun .def_494 () Bool (not .def_493))
(define-fun .def_495 () Bool (or |.x{1984}| .def_494))
(define-fun .def_472 () Bool (and .def_308 .def_471))
(define-fun .def_473 () Bool (and .def_195 .def_472))
(define-fun .def_474 () Bool (and .def_90 .def_473))
(define-fun .def_475 () Bool (and |.loc{9}| .def_474))
(define-fun .def_476 () Bool (and .def_94 .def_475))
(define-fun .def_477 () Bool (and |.loc{12}| .def_476))
(define-fun .def_478 () Bool (and .def_201 .def_477))
(define-fun .def_479 () Bool (and .def_98 .def_478))
(define-fun .def_480 () Bool (and .def_214 .def_479))
(define-fun .def_481 () Bool (and .def_216 .def_480))
(define-fun .def_482 () Bool (and .def_102 .def_481))
(define-fun .def_483 () Bool (and .def_220 .def_482))
(define-fun .def_484 () Bool (and .def_222 .def_483))
(define-fun .def_485 () Bool (and .def_224 .def_484))
(define-fun .def_486 () Bool (and .def_165 .def_485))
(define-fun .def_487 () Bool (and .def_229 .def_486))
(define-fun .def_488 () Bool (and .def_82 .def_487))
(define-fun .def_489 () Bool (and .def_168 .def_488))
(define-fun .def_490 () Bool (and .def_86 .def_489))
(define-fun .def_491 () Bool (and .def_170 .def_490))
(define-fun .def_492 () Bool (and .def_236 .def_491))
(define-fun .def_496 () Bool (and .def_492 .def_495))
(define-fun .def_626 () Bool (or .def_496 .def_625))
(define-fun .def_362 () Bool (and |.loc{9}| .def_361))
(define-fun .def_363 () Bool (and .def_94 .def_362))
(define-fun .def_432 () Bool (and |.loc{12}| .def_363))
(define-fun .def_433 () Bool (and .def_201 .def_432))
(define-fun .def_434 () Bool (and .def_98 .def_433))
(define-fun .def_435 () Bool (and .def_214 .def_434))
(define-fun .def_436 () Bool (and .def_216 .def_435))
(define-fun .def_437 () Bool (and .def_102 .def_436))
(define-fun .def_451 () Bool (and .def_220 .def_437))
(define-fun .def_452 () Bool (and .def_222 .def_451))
(define-fun .def_453 () Bool (and .def_224 .def_452))
(define-fun .def_454 () Bool (and .def_226 .def_453))
(define-fun .def_455 () Bool (and .def_165 .def_454))
(define-fun .def_456 () Bool (and .def_80 .def_455))
(define-fun .def_457 () Bool (and .def_229 .def_456))
(define-fun .def_458 () Bool (and .def_84 .def_457))
(define-fun .def_459 () Bool (and .def_168 .def_458))
(define-fun .def_460 () Bool (and .def_86 .def_459))
(define-fun .def_461 () Bool (and .def_273 .def_460))
(define-fun .def_462 () Bool (and .def_234 .def_461))
(define-fun .def_463 () Bool (and .def_236 .def_462))
(define-fun .def_627 () Bool (or .def_463 .def_626))
(define-fun .def_431 () Bool (or .def_80 .def_430))
(define-fun .def_438 () Bool (and .def_431 .def_437))
(define-fun .def_439 () Bool (and .def_220 .def_438))
(define-fun .def_440 () Bool (and .def_222 .def_439))
(define-fun .def_441 () Bool (and .def_224 .def_440))
(define-fun .def_442 () Bool (and .def_226 .def_441))
(define-fun .def_443 () Bool (and .def_165 .def_442))
(define-fun .def_444 () Bool (and .def_229 .def_443))
(define-fun .def_445 () Bool (and .def_84 .def_444))
(define-fun .def_446 () Bool (and .def_168 .def_445))
(define-fun .def_447 () Bool (and .def_86 .def_446))
(define-fun .def_448 () Bool (and .def_273 .def_447))
(define-fun .def_449 () Bool (and .def_234 .def_448))
(define-fun .def_450 () Bool (and .def_236 .def_449))
(define-fun .def_628 () Bool (or .def_450 .def_627))
(define-fun .def_411 () Bool (not .def_410))
(define-fun .def_412 () Bool (or .def_80 .def_411))
(define-fun .def_406 () Bool (and .def_94 .def_361))
(define-fun .def_407 () Bool (and .def_96 .def_406))
(define-fun .def_408 () Bool (and .def_201 .def_407))
(define-fun .def_409 () Bool (and .def_98 .def_408))
(define-fun .def_413 () Bool (and .def_409 .def_412))
(define-fun .def_414 () Bool (and .def_214 .def_413))
(define-fun .def_415 () Bool (and .def_216 .def_414))
(define-fun .def_416 () Bool (and .def_100 .def_415))
(define-fun .def_417 () Bool (and .def_102 .def_416))
(define-fun .def_418 () Bool (and .def_220 .def_417))
(define-fun .def_419 () Bool (and .def_222 .def_418))
(define-fun .def_420 () Bool (and .def_224 .def_419))
(define-fun .def_421 () Bool (and .def_226 .def_420))
(define-fun .def_422 () Bool (and .def_165 .def_421))
(define-fun .def_423 () Bool (and .def_229 .def_422))
(define-fun .def_424 () Bool (and .def_82 .def_423))
(define-fun .def_425 () Bool (and .def_84 .def_424))
(define-fun .def_426 () Bool (and .def_168 .def_425))
(define-fun .def_427 () Bool (and .def_86 .def_426))
(define-fun .def_428 () Bool (and .def_234 .def_427))
(define-fun .def_429 () Bool (and .def_236 .def_428))
(define-fun .def_629 () Bool (or .def_429 .def_628))
(define-fun .def_278 () Bool (and .def_91 .def_277))
(define-fun .def_279 () Bool (and .def_193 .def_278))
(define-fun .def_280 () Bool (and .def_195 .def_279))
(define-fun .def_385 () Bool (and .def_94 .def_280))
(define-fun .def_386 () Bool (and .def_96 .def_385))
(define-fun .def_387 () Bool (and .def_201 .def_386))
(define-fun .def_388 () Bool (and .def_98 .def_387))
(define-fun .def_389 () Bool (and .def_214 .def_388))
(define-fun .def_390 () Bool (and .def_216 .def_389))
(define-fun .def_391 () Bool (and .def_100 .def_390))
(define-fun .def_392 () Bool (and .def_102 .def_391))
(define-fun .def_393 () Bool (and .def_220 .def_392))
(define-fun .def_394 () Bool (and .def_222 .def_393))
(define-fun .def_395 () Bool (and .def_224 .def_394))
(define-fun .def_396 () Bool (and .def_226 .def_395))
(define-fun .def_397 () Bool (and .def_165 .def_396))
(define-fun .def_398 () Bool (and .def_80 .def_397))
(define-fun .def_399 () Bool (and .def_229 .def_398))
(define-fun .def_400 () Bool (and .def_168 .def_399))
(define-fun .def_401 () Bool (and .def_88 .def_400))
(define-fun .def_402 () Bool (and .def_273 .def_401))
(define-fun .def_403 () Bool (and .def_234 .def_402))
(define-fun .def_404 () Bool (and .def_170 .def_403))
(define-fun .def_405 () Bool (and .def_236 .def_404))
(define-fun .def_630 () Bool (or .def_405 .def_629))
(define-fun .def_212 () Bool (= .def_68 |.x{2052}|))
(define-fun .def_631 () Bool (and .def_212 .def_630))
(define-fun .def_371 () Bool (= |.x{2052}| 0))
(define-fun .def_372 () Bool (or .def_80 .def_371))
(define-fun .def_364 () Bool (and |.loc{11}| .def_363))
(define-fun .def_365 () Bool (and .def_201 .def_364))
(define-fun .def_366 () Bool (and .def_214 .def_365))
(define-fun .def_367 () Bool (and .def_216 .def_366))
(define-fun .def_368 () Bool (and .def_100 .def_367))
(define-fun .def_369 () Bool (and .def_102 .def_368))
(define-fun .def_370 () Bool (and .def_220 .def_369))
(define-fun .def_373 () Bool (and .def_370 .def_372))
(define-fun .def_374 () Bool (and .def_222 .def_373))
(define-fun .def_375 () Bool (and .def_224 .def_374))
(define-fun .def_376 () Bool (and .def_226 .def_375))
(define-fun .def_377 () Bool (and .def_165 .def_376))
(define-fun .def_378 () Bool (and .def_229 .def_377))
(define-fun .def_379 () Bool (and .def_168 .def_378))
(define-fun .def_380 () Bool (and .def_86 .def_379))
(define-fun .def_381 () Bool (and .def_273 .def_380))
(define-fun .def_382 () Bool (and .def_234 .def_381))
(define-fun .def_383 () Bool (and .def_170 .def_382))
(define-fun .def_384 () Bool (and .def_236 .def_383))
(define-fun .def_632 () Bool (or .def_384 .def_631))
(define-fun .def_78 () Int (! |.x{1983}| :next |.x{2057}|))
(define-fun .def_294 () Bool (= .def_78 |.x{2057}|))
(define-fun .def_74 () Int (! |.x{1981}| :next |.x{2055}|))
(define-fun .def_291 () Bool (= .def_74 |.x{2055}|))
(define-fun .def_359 () Bool (and .def_291 .def_294))
(define-fun .def_633 () Bool (and .def_359 .def_632))
(define-fun .def_207 () Bool (= .def_74 .def_78))
(define-fun .def_347 () Bool (not .def_207))
(define-fun .def_346 () Bool (= |.x{2052}| 1))
(define-fun .def_348 () Bool (and .def_346 .def_347))
(define-fun .def_349 () Bool (or .def_80 .def_348))
(define-fun .def_281 () Bool (and .def_90 .def_280))
(define-fun .def_335 () Bool (and |.loc{9}| .def_281))
(define-fun .def_336 () Bool (and .def_94 .def_335))
(define-fun .def_337 () Bool (and |.loc{11}| .def_336))
(define-fun .def_338 () Bool (and .def_201 .def_337))
(define-fun .def_339 () Bool (and .def_214 .def_338))
(define-fun .def_340 () Bool (and .def_216 .def_339))
(define-fun .def_341 () Bool (and .def_100 .def_340))
(define-fun .def_342 () Bool (and .def_102 .def_341))
(define-fun .def_343 () Bool (and .def_220 .def_342))
(define-fun .def_344 () Bool (and .def_222 .def_343))
(define-fun .def_345 () Bool (and .def_224 .def_344))
(define-fun .def_350 () Bool (and .def_345 .def_349))
(define-fun .def_351 () Bool (and .def_226 .def_350))
(define-fun .def_352 () Bool (and .def_165 .def_351))
(define-fun .def_353 () Bool (and .def_229 .def_352))
(define-fun .def_354 () Bool (and .def_82 .def_353))
(define-fun .def_355 () Bool (and .def_84 .def_354))
(define-fun .def_356 () Bool (and .def_168 .def_355))
(define-fun .def_357 () Bool (and .def_234 .def_356))
(define-fun .def_358 () Bool (and .def_236 .def_357))
(define-fun .def_634 () Bool (or .def_358 .def_633))
(define-fun .def_309 () Bool (and .def_91 .def_308))
(define-fun .def_310 () Bool (and .def_195 .def_309))
(define-fun .def_311 () Bool (and .def_90 .def_310))
(define-fun .def_312 () Bool (and .def_94 .def_311))
(define-fun .def_313 () Bool (and |.loc{11}| .def_312))
(define-fun .def_314 () Bool (and .def_96 .def_313))
(define-fun .def_315 () Bool (and .def_201 .def_314))
(define-fun .def_316 () Bool (and .def_212 .def_315))
(define-fun .def_317 () Bool (and .def_214 .def_316))
(define-fun .def_318 () Bool (and .def_216 .def_317))
(define-fun .def_319 () Bool (and .def_291 .def_318))
(define-fun .def_320 () Bool (and .def_100 .def_319))
(define-fun .def_321 () Bool (and .def_294 .def_320))
(define-fun .def_322 () Bool (and .def_102 .def_321))
(define-fun .def_323 () Bool (and .def_220 .def_322))
(define-fun .def_324 () Bool (and .def_222 .def_323))
(define-fun .def_325 () Bool (and .def_224 .def_324))
(define-fun .def_326 () Bool (and .def_226 .def_325))
(define-fun .def_327 () Bool (and .def_165 .def_326))
(define-fun .def_328 () Bool (and .def_80 .def_327))
(define-fun .def_329 () Bool (and .def_229 .def_328))
(define-fun .def_330 () Bool (and .def_168 .def_329))
(define-fun .def_331 () Bool (and .def_84 .def_330))
(define-fun .def_332 () Bool (and .def_234 .def_331))
(define-fun .def_333 () Bool (and .def_273 .def_332))
(define-fun .def_334 () Bool (and .def_236 .def_333))
(define-fun .def_635 () Bool (or .def_334 .def_634))
(define-fun .def_255 () Bool (<= 100000 .def_50))
(define-fun .def_284 () Bool (or .def_80 .def_255))
(define-fun .def_282 () Bool (and .def_94 .def_281))
(define-fun .def_283 () Bool (and |.loc{11}| .def_282))
(define-fun .def_285 () Bool (and .def_283 .def_284))
(define-fun .def_286 () Bool (and .def_96 .def_285))
(define-fun .def_287 () Bool (and .def_201 .def_286))
(define-fun .def_288 () Bool (and .def_212 .def_287))
(define-fun .def_289 () Bool (and .def_214 .def_288))
(define-fun .def_290 () Bool (and .def_216 .def_289))
(define-fun .def_292 () Bool (and .def_290 .def_291))
(define-fun .def_293 () Bool (and .def_100 .def_292))
(define-fun .def_295 () Bool (and .def_293 .def_294))
(define-fun .def_296 () Bool (and .def_102 .def_295))
(define-fun .def_297 () Bool (and .def_220 .def_296))
(define-fun .def_298 () Bool (and .def_222 .def_297))
(define-fun .def_299 () Bool (and .def_224 .def_298))
(define-fun .def_300 () Bool (and .def_226 .def_299))
(define-fun .def_301 () Bool (and .def_165 .def_300))
(define-fun .def_302 () Bool (and .def_229 .def_301))
(define-fun .def_303 () Bool (and .def_84 .def_302))
(define-fun .def_304 () Bool (and .def_168 .def_303))
(define-fun .def_305 () Bool (and .def_273 .def_304))
(define-fun .def_306 () Bool (and .def_234 .def_305))
(define-fun .def_307 () Bool (and .def_236 .def_306))
(define-fun .def_636 () Bool (or .def_307 .def_635))
(define-fun .def_256 () Bool (not .def_255))
(define-fun .def_245 () Int (* 4 .def_50))
(define-fun .def_32 () Int (! |.x{1960}| :next |.x{2034}|))
(define-fun .def_250 () Int (+ .def_32 .def_245))
(define-fun .def_76 () Int (! |.x{1982}| :next |.x{2056}|))
(define-fun .def_251 () (Array Int Int) (select .def_14 .def_76))
(define-fun .def_252 () Int (select .def_251 .def_250))
(define-fun .def_253 () Bool (= |.x{2055}| .def_252))
(define-fun .def_257 () Bool (and .def_253 .def_256))
(define-fun .def_44 () Int (! |.x{1966}| :next |.x{2040}|))
(define-fun .def_246 () Int (+ .def_44 .def_245))
(define-fun .def_52 () Int (! |.x{1970}| :next |.x{2044}|))
(define-fun .def_247 () (Array Int Int) (select .def_14 .def_52))
(define-fun .def_248 () Int (select .def_247 .def_246))
(define-fun .def_249 () Bool (= |.x{2057}| .def_248))
(define-fun .def_258 () Bool (and .def_249 .def_257))
(define-fun .def_259 () Bool (or .def_80 .def_258))
(define-fun .def_238 () Bool (and |.loc{9}| .def_197))
(define-fun .def_239 () Bool (and |.loc{10}| .def_238))
(define-fun .def_240 () Bool (and .def_94 .def_239))
(define-fun .def_241 () Bool (and .def_201 .def_240))
(define-fun .def_242 () Bool (and .def_98 .def_241))
(define-fun .def_243 () Bool (and .def_212 .def_242))
(define-fun .def_260 () Bool (and .def_243 .def_259))
(define-fun .def_261 () Bool (and .def_214 .def_260))
(define-fun .def_262 () Bool (and .def_216 .def_261))
(define-fun .def_263 () Bool (and .def_100 .def_262))
(define-fun .def_264 () Bool (and .def_102 .def_263))
(define-fun .def_265 () Bool (and .def_220 .def_264))
(define-fun .def_266 () Bool (and .def_222 .def_265))
(define-fun .def_267 () Bool (and .def_224 .def_266))
(define-fun .def_268 () Bool (and .def_226 .def_267))
(define-fun .def_269 () Bool (and .def_165 .def_268))
(define-fun .def_270 () Bool (and .def_229 .def_269))
(define-fun .def_271 () Bool (and .def_84 .def_270))
(define-fun .def_272 () Bool (and .def_168 .def_271))
(define-fun .def_274 () Bool (and .def_272 .def_273))
(define-fun .def_275 () Bool (and .def_234 .def_274))
(define-fun .def_276 () Bool (and .def_236 .def_275))
(define-fun .def_637 () Bool (or .def_276 .def_636))
(define-fun .def_639 () Bool (and .def_637 .def_638))
(define-fun .def_204 () Int (* (- 1) |.x{2043}|))
(define-fun .def_205 () Int (+ .def_50 .def_204))
(define-fun .def_206 () Bool (= .def_205 (- 1)))
(define-fun .def_208 () Bool (and .def_206 .def_207))
(define-fun .def_209 () Bool (or .def_80 .def_208))
(define-fun .def_200 () Bool (and .def_96 .def_199))
(define-fun .def_202 () Bool (and .def_200 .def_201))
(define-fun .def_210 () Bool (and .def_202 .def_209))
(define-fun .def_211 () Bool (and .def_98 .def_210))
(define-fun .def_213 () Bool (and .def_211 .def_212))
(define-fun .def_215 () Bool (and .def_213 .def_214))
(define-fun .def_217 () Bool (and .def_215 .def_216))
(define-fun .def_218 () Bool (and .def_100 .def_217))
(define-fun .def_219 () Bool (and .def_102 .def_218))
(define-fun .def_221 () Bool (and .def_219 .def_220))
(define-fun .def_223 () Bool (and .def_221 .def_222))
(define-fun .def_225 () Bool (and .def_223 .def_224))
(define-fun .def_227 () Bool (and .def_225 .def_226))
(define-fun .def_228 () Bool (and .def_165 .def_227))
(define-fun .def_230 () Bool (and .def_228 .def_229))
(define-fun .def_231 () Bool (and .def_82 .def_230))
(define-fun .def_232 () Bool (and .def_84 .def_231))
(define-fun .def_233 () Bool (and .def_168 .def_232))
(define-fun .def_235 () Bool (and .def_233 .def_234))
(define-fun .def_237 () Bool (and .def_235 .def_236))
(define-fun .def_640 () Bool (or .def_237 .def_639))
(define-fun .def_191 () Bool (= .def_52 |.x{2044}|))
(define-fun .def_46 () Int (! |.x{1967}| :next |.x{2041}|))
(define-fun .def_189 () Bool (= .def_46 |.x{2041}|))
(define-fun .def_187 () Bool (= .def_44 |.x{2040}|))
(define-fun .def_40 () Int (! |.x{1964}| :next |.x{2038}|))
(define-fun .def_185 () Bool (= .def_40 |.x{2038}|))
(define-fun .def_38 () Int (! |.x{1963}| :next |.x{2037}|))
(define-fun .def_183 () Bool (= .def_38 |.x{2037}|))
(define-fun .def_181 () Bool (= .def_32 |.x{2034}|))
(define-fun .def_28 () Int (! |.x{1958}| :next |.x{2032}|))
(define-fun .def_179 () Bool (= .def_28 |.x{2032}|))
(define-fun .def_177 () Bool (= .def_76 |.x{2056}|))
(define-fun .def_175 () Bool (= .def_24 |.x{2030}|))
(define-fun .def_173 () Bool (= .def_16 |.x{2026}|))
(define-fun .def_172 () Bool (= .def_20 |.x{2028}|))
(define-fun .def_174 () Bool (and .def_172 .def_173))
(define-fun .def_176 () Bool (and .def_174 .def_175))
(define-fun .def_178 () Bool (and .def_176 .def_177))
(define-fun .def_180 () Bool (and .def_178 .def_179))
(define-fun .def_182 () Bool (and .def_180 .def_181))
(define-fun .def_184 () Bool (and .def_182 .def_183))
(define-fun .def_186 () Bool (and .def_184 .def_185))
(define-fun .def_188 () Bool (and .def_186 .def_187))
(define-fun .def_190 () Bool (and .def_188 .def_189))
(define-fun .def_192 () Bool (and .def_190 .def_191))
(define-fun .def_641 () Bool (and .def_192 .def_640))
(define-fun .def_160 () Bool (= |.x{2030}| 0))
(define-fun .def_159 () Bool (= |.x{2026}| 0))
(define-fun .def_161 () Bool (and .def_159 .def_160))
(define-fun .def_157 () (Array Int Int) (store .def_10 0 0))
(define-fun .def_158 () Bool (= |.x{147}| .def_157))
(define-fun .def_162 () Bool (and .def_158 .def_161))
(define-fun .def_163 () Bool (or .def_80 .def_162))
(define-fun .def_144 () Bool (<= |.x{2022}| |.x{2036}|))
(define-fun .def_145 () Bool (not .def_144))
(define-fun .def_140 () Bool (<= |.x{2022}| |.x{2048}|))
(define-fun .def_141 () Bool (not .def_140))
(define-fun .def_133 () (Array Int Int) (store .def_20 |.x{2048}| 400000))
(define-fun .def_134 () (Array Int Int) (store .def_133 |.x{2036}| 400000))
(define-fun .def_135 () Bool (= |.x{2028}| .def_134))
(define-fun .def_128 () Bool (= |.x{2038}| |.x{2048}|))
(define-fun .def_127 () Bool (= |.x{2032}| |.x{2039}|))
(define-fun .def_129 () Bool (and .def_127 .def_128))
(define-fun .def_126 () Bool (= |.x{2038}| |.x{2044}|))
(define-fun .def_130 () Bool (and .def_126 .def_129))
(define-fun .def_125 () Bool (= |.x{2043}| 0))
(define-fun .def_131 () Bool (and .def_125 .def_130))
(define-fun .def_136 () Bool (and .def_131 .def_135))
(define-fun .def_124 () Bool (= |.x{2032}| |.x{2040}|))
(define-fun .def_137 () Bool (and .def_124 .def_136))
(define-fun .def_119 () (Array Int Int) (store |.x{147}| |.x{2048}| 1))
(define-fun .def_122 () (Array Int Int) (store .def_119 |.x{2036}| 1))
(define-fun .def_123 () Bool (= |.x{2023}| .def_122))
(define-fun .def_138 () Bool (and .def_123 .def_137))
(define-fun .def_120 () Int (select .def_119 |.x{2036}|))
(define-fun .def_121 () Bool (= .def_120 0))
(define-fun .def_139 () Bool (and .def_121 .def_138))
(define-fun .def_142 () Bool (and .def_139 .def_141))
(define-fun .def_116 () Bool (= |.x{2036}| 0))
(define-fun .def_117 () Bool (not .def_116))
(define-fun .def_143 () Bool (and .def_117 .def_142))
(define-fun .def_146 () Bool (and .def_143 .def_145))
(define-fun .def_115 () Bool (= |.x{2051}| 0))
(define-fun .def_147 () Bool (and .def_115 .def_146))
(define-fun .def_114 () Bool (= |.x{2036}| |.x{2037}|))
(define-fun .def_148 () Bool (and .def_114 .def_147))
(define-fun .def_113 () Bool (= |.x{2034}| |.x{2041}|))
(define-fun .def_149 () Bool (and .def_113 .def_148))
(define-fun .def_111 () Bool (= |.x{2048}| 0))
(define-fun .def_112 () Bool (not .def_111))
(define-fun .def_150 () Bool (and .def_112 .def_149))
(define-fun .def_110 () Bool (= |.x{2039}| 0))
(define-fun .def_151 () Bool (and .def_110 .def_150))
(define-fun .def_108 () Int (select |.x{147}| |.x{2048}|))
(define-fun .def_109 () Bool (= .def_108 0))
(define-fun .def_152 () Bool (and .def_109 .def_151))
(define-fun .def_105 () Bool (= |.x{2041}| |.x{2051}|))
(define-fun .def_153 () Bool (and .def_105 .def_152))
(define-fun .def_104 () Bool (= |.x{2037}| |.x{2056}|))
(define-fun .def_154 () Bool (and .def_104 .def_153))
(define-fun .def_155 () Bool (or |.x{1984}| .def_154))
(define-fun .def_92 () Bool (and .def_90 .def_91))
(define-fun .def_93 () Bool (and |.loc{10}| .def_92))
(define-fun .def_95 () Bool (and .def_93 .def_94))
(define-fun .def_97 () Bool (and .def_95 .def_96))
(define-fun .def_99 () Bool (and .def_97 .def_98))
(define-fun .def_101 () Bool (and .def_99 .def_100))
(define-fun .def_103 () Bool (and .def_101 .def_102))
(define-fun .def_156 () Bool (and .def_103 .def_155))
(define-fun .def_164 () Bool (and .def_156 .def_163))
(define-fun .def_166 () Bool (and .def_164 .def_165))
(define-fun .def_167 () Bool (and .def_82 .def_166))
(define-fun .def_169 () Bool (and .def_167 .def_168))
(define-fun .def_171 () Bool (and .def_169 .def_170))
(define-fun .def_642 () Bool (or .def_171 .def_641))
(define-fun .def_654 () Bool (! (and .def_642 .def_653) :trans true))
(define-fun .def_668 () Bool (and .def_84 .def_273))
(define-fun .def_669 () Bool (and .def_91 .def_668))
(define-fun .def_670 () Bool (and .def_88 .def_669))
(define-fun .def_671 () Bool (and .def_80 .def_670))
(define-fun .def_672 () Bool (! (not .def_671) :invar-property 0))
(assert true)
